(declare-fun C1 () Real)
(declare-fun C2 () Real)
(declare-fun C3 () Real)
(declare-fun C4 () Real)
(declare-fun C5 () Real)
(declare-fun C6 () Real)
(declare-fun C7 () Real)
(declare-fun C8 () Real)
(declare-fun C9 () Real)
(declare-fun C10 () Real)
(declare-fun k () Real)
(assert (let 
(( $goal (<= (+ (/ C1 736 ) (/ C2 789 ) (/ C3 1255 ) (/ C4 1308 ) (/ C5 1324 ) (/ C6 1782 ) (/ C7 2759 ) (/ C8 4081 ) (/ C9 4212 ) (/ C10 4650 ) ) k ) ))
(let 
(($phi ( and ( or  (>= 736 (+  (* 1 C1)  (* 0 C2)  (* 0 C3)  (* 0 C4)  (* 0 C5)  (* 0 C6)  (* 0 C7)  (* 0 C8)  (* 0 C9)  (* 0 C10) )) ) ( or  (>= 736 (+  (* 1 C1)  (* 1 C2)  (* 0 C3)  (* 0 C4)  (* 0 C5)  (* 0 C6)  (* 0 C7)  (* 0 C8)  (* 0 C9)  (* 0 C10) ))  (>= 789 (+  (* 2 C1)  (* 1 C2)  (* 0 C3)  (* 0 C4)  (* 0 C5)  (* 0 C6)  (* 0 C7)  (* 0 C8)  (* 0 C9)  (* 0 C10) )) ) ( or  (>= 736 (+  (* 1 C1)  (* 1 C2)  (* 1 C3)  (* 0 C4)  (* 0 C5)  (* 0 C6)  (* 0 C7)  (* 0 C8)  (* 0 C9)  (* 0 C10) ))  (>= 789 (+  (* 2 C1)  (* 1 C2)  (* 1 C3)  (* 0 C4)  (* 0 C5)  (* 0 C6)  (* 0 C7)  (* 0 C8)  (* 0 C9)  (* 0 C10) ))  (>= 1255 (+  (* 2 C1)  (* 2 C2)  (* 1 C3)  (* 0 C4)  (* 0 C5)  (* 0 C6)  (* 0 C7)  (* 0 C8)  (* 0 C9)  (* 0 C10) )) ) ( or  (>= 736 (+  (* 1 C1)  (* 1 C2)  (* 1 C3)  (* 1 C4)  (* 0 C5)  (* 0 C6)  (* 0 C7)  (* 0 C8)  (* 0 C9)  (* 0 C10) ))  (>= 789 (+  (* 2 C1)  (* 1 C2)  (* 1 C3)  (* 1 C4)  (* 0 C5)  (* 0 C6)  (* 0 C7)  (* 0 C8)  (* 0 C9)  (* 0 C10) ))  (>= 1255 (+  (* 2 C1)  (* 2 C2)  (* 1 C3)  (* 1 C4)  (* 0 C5)  (* 0 C6)  (* 0 C7)  (* 0 C8)  (* 0 C9)  (* 0 C10) ))  (>= 1308 (+  (* 2 C1)  (* 2 C2)  (* 2 C3)  (* 1 C4)  (* 0 C5)  (* 0 C6)  (* 0 C7)  (* 0 C8)  (* 0 C9)  (* 0 C10) )) ) ( or  (>= 736 (+  (* 1 C1)  (* 1 C2)  (* 1 C3)  (* 1 C4)  (* 1 C5)  (* 0 C6)  (* 0 C7)  (* 0 C8)  (* 0 C9)  (* 0 C10) ))  (>= 789 (+  (* 2 C1)  (* 1 C2)  (* 1 C3)  (* 1 C4)  (* 1 C5)  (* 0 C6)  (* 0 C7)  (* 0 C8)  (* 0 C9)  (* 0 C10) ))  (>= 1255 (+  (* 2 C1)  (* 2 C2)  (* 1 C3)  (* 1 C4)  (* 1 C5)  (* 0 C6)  (* 0 C7)  (* 0 C8)  (* 0 C9)  (* 0 C10) ))  (>= 1308 (+  (* 2 C1)  (* 2 C2)  (* 2 C3)  (* 1 C4)  (* 1 C5)  (* 0 C6)  (* 0 C7)  (* 0 C8)  (* 0 C9)  (* 0 C10) ))  (>= 1324 (+  (* 2 C1)  (* 2 C2)  (* 2 C3)  (* 2 C4)  (* 1 C5)  (* 0 C6)  (* 0 C7)  (* 0 C8)  (* 0 C9)  (* 0 C10) )) ) ( or  (>= 736 (+  (* 1 C1)  (* 1 C2)  (* 1 C3)  (* 1 C4)  (* 1 C5)  (* 1 C6)  (* 0 C7)  (* 0 C8)  (* 0 C9)  (* 0 C10) ))  (>= 789 (+  (* 2 C1)  (* 1 C2)  (* 1 C3)  (* 1 C4)  (* 1 C5)  (* 1 C6)  (* 0 C7)  (* 0 C8)  (* 0 C9)  (* 0 C10) ))  (>= 1255 (+  (* 2 C1)  (* 2 C2)  (* 1 C3)  (* 1 C4)  (* 1 C5)  (* 1 C6)  (* 0 C7)  (* 0 C8)  (* 0 C9)  (* 0 C10) ))  (>= 1308 (+  (* 2 C1)  (* 2 C2)  (* 2 C3)  (* 1 C4)  (* 1 C5)  (* 1 C6)  (* 0 C7)  (* 0 C8)  (* 0 C9)  (* 0 C10) ))  (>= 1324 (+  (* 2 C1)  (* 2 C2)  (* 2 C3)  (* 2 C4)  (* 1 C5)  (* 1 C6)  (* 0 C7)  (* 0 C8)  (* 0 C9)  (* 0 C10) ))  (>= 1472 (+  (* 2 C1)  (* 2 C2)  (* 2 C3)  (* 2 C4)  (* 2 C5)  (* 1 C6)  (* 0 C7)  (* 0 C8)  (* 0 C9)  (* 0 C10) ))  (>= 1578 (+  (* 3 C1)  (* 2 C2)  (* 2 C3)  (* 2 C4)  (* 2 C5)  (* 1 C6)  (* 0 C7)  (* 0 C8)  (* 0 C9)  (* 0 C10) ))  (>= 1782 (+  (* 3 C1)  (* 3 C2)  (* 2 C3)  (* 2 C4)  (* 2 C5)  (* 1 C6)  (* 0 C7)  (* 0 C8)  (* 0 C9)  (* 0 C10) )) ) ( or  (>= 736 (+  (* 1 C1)  (* 1 C2)  (* 1 C3)  (* 1 C4)  (* 1 C5)  (* 1 C6)  (* 1 C7)  (* 0 C8)  (* 0 C9)  (* 0 C10) ))  (>= 789 (+  (* 2 C1)  (* 1 C2)  (* 1 C3)  (* 1 C4)  (* 1 C5)  (* 1 C6)  (* 1 C7)  (* 0 C8)  (* 0 C9)  (* 0 C10) ))  (>= 1255 (+  (* 2 C1)  (* 2 C2)  (* 1 C3)  (* 1 C4)  (* 1 C5)  (* 1 C6)  (* 1 C7)  (* 0 C8)  (* 0 C9)  (* 0 C10) ))  (>= 1308 (+  (* 2 C1)  (* 2 C2)  (* 2 C3)  (* 1 C4)  (* 1 C5)  (* 1 C6)  (* 1 C7)  (* 0 C8)  (* 0 C9)  (* 0 C10) ))  (>= 1324 (+  (* 2 C1)  (* 2 C2)  (* 2 C3)  (* 2 C4)  (* 1 C5)  (* 1 C6)  (* 1 C7)  (* 0 C8)  (* 0 C9)  (* 0 C10) ))  (>= 1472 (+  (* 2 C1)  (* 2 C2)  (* 2 C3)  (* 2 C4)  (* 2 C5)  (* 1 C6)  (* 1 C7)  (* 0 C8)  (* 0 C9)  (* 0 C10) ))  (>= 1578 (+  (* 3 C1)  (* 2 C2)  (* 2 C3)  (* 2 C4)  (* 2 C5)  (* 1 C6)  (* 1 C7)  (* 0 C8)  (* 0 C9)  (* 0 C10) ))  (>= 1782 (+  (* 3 C1)  (* 3 C2)  (* 2 C3)  (* 2 C4)  (* 2 C5)  (* 1 C6)  (* 1 C7)  (* 0 C8)  (* 0 C9)  (* 0 C10) ))  (>= 2208 (+  (* 3 C1)  (* 3 C2)  (* 2 C3)  (* 2 C4)  (* 2 C5)  (* 2 C6)  (* 1 C7)  (* 0 C8)  (* 0 C9)  (* 0 C10) ))  (>= 2367 (+  (* 4 C1)  (* 3 C2)  (* 2 C3)  (* 2 C4)  (* 2 C5)  (* 2 C6)  (* 1 C7)  (* 0 C8)  (* 0 C9)  (* 0 C10) ))  (>= 2510 (+  (* 4 C1)  (* 4 C2)  (* 2 C3)  (* 2 C4)  (* 2 C5)  (* 2 C6)  (* 1 C7)  (* 0 C8)  (* 0 C9)  (* 0 C10) ))  (>= 2616 (+  (* 4 C1)  (* 4 C2)  (* 3 C3)  (* 2 C4)  (* 2 C5)  (* 2 C6)  (* 1 C7)  (* 0 C8)  (* 0 C9)  (* 0 C10) ))  (>= 2648 (+  (* 4 C1)  (* 4 C2)  (* 3 C3)  (* 3 C4)  (* 2 C5)  (* 2 C6)  (* 1 C7)  (* 0 C8)  (* 0 C9)  (* 0 C10) ))  (>= 2759 (+  (* 4 C1)  (* 4 C2)  (* 3 C3)  (* 3 C4)  (* 3 C5)  (* 2 C6)  (* 1 C7)  (* 0 C8)  (* 0 C9)  (* 0 C10) )) ) ( or  (>= 736 (+  (* 1 C1)  (* 1 C2)  (* 1 C3)  (* 1 C4)  (* 1 C5)  (* 1 C6)  (* 1 C7)  (* 1 C8)  (* 0 C9)  (* 0 C10) ))  (>= 789 (+  (* 2 C1)  (* 1 C2)  (* 1 C3)  (* 1 C4)  (* 1 C5)  (* 1 C6)  (* 1 C7)  (* 1 C8)  (* 0 C9)  (* 0 C10) ))  (>= 1255 (+  (* 2 C1)  (* 2 C2)  (* 1 C3)  (* 1 C4)  (* 1 C5)  (* 1 C6)  (* 1 C7)  (* 1 C8)  (* 0 C9)  (* 0 C10) ))  (>= 1308 (+  (* 2 C1)  (* 2 C2)  (* 2 C3)  (* 1 C4)  (* 1 C5)  (* 1 C6)  (* 1 C7)  (* 1 C8)  (* 0 C9)  (* 0 C10) ))  (>= 1324 (+  (* 2 C1)  (* 2 C2)  (* 2 C3)  (* 2 C4)  (* 1 C5)  (* 1 C6)  (* 1 C7)  (* 1 C8)  (* 0 C9)  (* 0 C10) ))  (>= 1472 (+  (* 2 C1)  (* 2 C2)  (* 2 C3)  (* 2 C4)  (* 2 C5)  (* 1 C6)  (* 1 C7)  (* 1 C8)  (* 0 C9)  (* 0 C10) ))  (>= 1578 (+  (* 3 C1)  (* 2 C2)  (* 2 C3)  (* 2 C4)  (* 2 C5)  (* 1 C6)  (* 1 C7)  (* 1 C8)  (* 0 C9)  (* 0 C10) ))  (>= 1782 (+  (* 3 C1)  (* 3 C2)  (* 2 C3)  (* 2 C4)  (* 2 C5)  (* 1 C6)  (* 1 C7)  (* 1 C8)  (* 0 C9)  (* 0 C10) ))  (>= 2208 (+  (* 3 C1)  (* 3 C2)  (* 2 C3)  (* 2 C4)  (* 2 C5)  (* 2 C6)  (* 1 C7)  (* 1 C8)  (* 0 C9)  (* 0 C10) ))  (>= 2367 (+  (* 4 C1)  (* 3 C2)  (* 2 C3)  (* 2 C4)  (* 2 C5)  (* 2 C6)  (* 1 C7)  (* 1 C8)  (* 0 C9)  (* 0 C10) ))  (>= 2510 (+  (* 4 C1)  (* 4 C2)  (* 2 C3)  (* 2 C4)  (* 2 C5)  (* 2 C6)  (* 1 C7)  (* 1 C8)  (* 0 C9)  (* 0 C10) ))  (>= 2616 (+  (* 4 C1)  (* 4 C2)  (* 3 C3)  (* 2 C4)  (* 2 C5)  (* 2 C6)  (* 1 C7)  (* 1 C8)  (* 0 C9)  (* 0 C10) ))  (>= 2648 (+  (* 4 C1)  (* 4 C2)  (* 3 C3)  (* 3 C4)  (* 2 C5)  (* 2 C6)  (* 1 C7)  (* 1 C8)  (* 0 C9)  (* 0 C10) ))  (>= 2759 (+  (* 4 C1)  (* 4 C2)  (* 3 C3)  (* 3 C4)  (* 3 C5)  (* 2 C6)  (* 1 C7)  (* 1 C8)  (* 0 C9)  (* 0 C10) ))  (>= 2944 (+  (* 4 C1)  (* 4 C2)  (* 3 C3)  (* 3 C4)  (* 3 C5)  (* 2 C6)  (* 2 C7)  (* 1 C8)  (* 0 C9)  (* 0 C10) ))  (>= 3156 (+  (* 5 C1)  (* 4 C2)  (* 3 C3)  (* 3 C4)  (* 3 C5)  (* 2 C6)  (* 2 C7)  (* 1 C8)  (* 0 C9)  (* 0 C10) ))  (>= 3564 (+  (* 5 C1)  (* 5 C2)  (* 3 C3)  (* 3 C4)  (* 3 C5)  (* 2 C6)  (* 2 C7)  (* 1 C8)  (* 0 C9)  (* 0 C10) ))  (>= 3680 (+  (* 5 C1)  (* 5 C2)  (* 3 C3)  (* 3 C4)  (* 3 C5)  (* 3 C6)  (* 2 C7)  (* 1 C8)  (* 0 C9)  (* 0 C10) ))  (>= 3765 (+  (* 6 C1)  (* 5 C2)  (* 3 C3)  (* 3 C4)  (* 3 C5)  (* 3 C6)  (* 2 C7)  (* 1 C8)  (* 0 C9)  (* 0 C10) ))  (>= 3924 (+  (* 6 C1)  (* 5 C2)  (* 4 C3)  (* 3 C4)  (* 3 C5)  (* 3 C6)  (* 2 C7)  (* 1 C8)  (* 0 C9)  (* 0 C10) ))  (>= 3945 (+  (* 6 C1)  (* 5 C2)  (* 4 C3)  (* 4 C4)  (* 3 C5)  (* 3 C6)  (* 2 C7)  (* 1 C8)  (* 0 C9)  (* 0 C10) ))  (>= 3972 (+  (* 6 C1)  (* 6 C2)  (* 4 C3)  (* 4 C4)  (* 3 C5)  (* 3 C6)  (* 2 C7)  (* 1 C8)  (* 0 C9)  (* 0 C10) ))  (>= 4081 (+  (* 6 C1)  (* 6 C2)  (* 4 C3)  (* 4 C4)  (* 4 C5)  (* 3 C6)  (* 2 C7)  (* 1 C8)  (* 0 C9)  (* 0 C10) )) ) ( or  (>= 736 (+  (* 1 C1)  (* 1 C2)  (* 1 C3)  (* 1 C4)  (* 1 C5)  (* 1 C6)  (* 1 C7)  (* 1 C8)  (* 1 C9)  (* 0 C10) ))  (>= 789 (+  (* 2 C1)  (* 1 C2)  (* 1 C3)  (* 1 C4)  (* 1 C5)  (* 1 C6)  (* 1 C7)  (* 1 C8)  (* 1 C9)  (* 0 C10) ))  (>= 1255 (+  (* 2 C1)  (* 2 C2)  (* 1 C3)  (* 1 C4)  (* 1 C5)  (* 1 C6)  (* 1 C7)  (* 1 C8)  (* 1 C9)  (* 0 C10) ))  (>= 1308 (+  (* 2 C1)  (* 2 C2)  (* 2 C3)  (* 1 C4)  (* 1 C5)  (* 1 C6)  (* 1 C7)  (* 1 C8)  (* 1 C9)  (* 0 C10) ))  (>= 1324 (+  (* 2 C1)  (* 2 C2)  (* 2 C3)  (* 2 C4)  (* 1 C5)  (* 1 C6)  (* 1 C7)  (* 1 C8)  (* 1 C9)  (* 0 C10) ))  (>= 1472 (+  (* 2 C1)  (* 2 C2)  (* 2 C3)  (* 2 C4)  (* 2 C5)  (* 1 C6)  (* 1 C7)  (* 1 C8)  (* 1 C9)  (* 0 C10) ))  (>= 1578 (+  (* 3 C1)  (* 2 C2)  (* 2 C3)  (* 2 C4)  (* 2 C5)  (* 1 C6)  (* 1 C7)  (* 1 C8)  (* 1 C9)  (* 0 C10) ))  (>= 1782 (+  (* 3 C1)  (* 3 C2)  (* 2 C3)  (* 2 C4)  (* 2 C5)  (* 1 C6)  (* 1 C7)  (* 1 C8)  (* 1 C9)  (* 0 C10) ))  (>= 2208 (+  (* 3 C1)  (* 3 C2)  (* 2 C3)  (* 2 C4)  (* 2 C5)  (* 2 C6)  (* 1 C7)  (* 1 C8)  (* 1 C9)  (* 0 C10) ))  (>= 2367 (+  (* 4 C1)  (* 3 C2)  (* 2 C3)  (* 2 C4)  (* 2 C5)  (* 2 C6)  (* 1 C7)  (* 1 C8)  (* 1 C9)  (* 0 C10) ))  (>= 2510 (+  (* 4 C1)  (* 4 C2)  (* 2 C3)  (* 2 C4)  (* 2 C5)  (* 2 C6)  (* 1 C7)  (* 1 C8)  (* 1 C9)  (* 0 C10) ))  (>= 2616 (+  (* 4 C1)  (* 4 C2)  (* 3 C3)  (* 2 C4)  (* 2 C5)  (* 2 C6)  (* 1 C7)  (* 1 C8)  (* 1 C9)  (* 0 C10) ))  (>= 2648 (+  (* 4 C1)  (* 4 C2)  (* 3 C3)  (* 3 C4)  (* 2 C5)  (* 2 C6)  (* 1 C7)  (* 1 C8)  (* 1 C9)  (* 0 C10) ))  (>= 2759 (+  (* 4 C1)  (* 4 C2)  (* 3 C3)  (* 3 C4)  (* 3 C5)  (* 2 C6)  (* 1 C7)  (* 1 C8)  (* 1 C9)  (* 0 C10) ))  (>= 2944 (+  (* 4 C1)  (* 4 C2)  (* 3 C3)  (* 3 C4)  (* 3 C5)  (* 2 C6)  (* 2 C7)  (* 1 C8)  (* 1 C9)  (* 0 C10) ))  (>= 3156 (+  (* 5 C1)  (* 4 C2)  (* 3 C3)  (* 3 C4)  (* 3 C5)  (* 2 C6)  (* 2 C7)  (* 1 C8)  (* 1 C9)  (* 0 C10) ))  (>= 3564 (+  (* 5 C1)  (* 5 C2)  (* 3 C3)  (* 3 C4)  (* 3 C5)  (* 2 C6)  (* 2 C7)  (* 1 C8)  (* 1 C9)  (* 0 C10) ))  (>= 3680 (+  (* 5 C1)  (* 5 C2)  (* 3 C3)  (* 3 C4)  (* 3 C5)  (* 3 C6)  (* 2 C7)  (* 1 C8)  (* 1 C9)  (* 0 C10) ))  (>= 3765 (+  (* 6 C1)  (* 5 C2)  (* 3 C3)  (* 3 C4)  (* 3 C5)  (* 3 C6)  (* 2 C7)  (* 1 C8)  (* 1 C9)  (* 0 C10) ))  (>= 3924 (+  (* 6 C1)  (* 5 C2)  (* 4 C3)  (* 3 C4)  (* 3 C5)  (* 3 C6)  (* 2 C7)  (* 1 C8)  (* 1 C9)  (* 0 C10) ))  (>= 3945 (+  (* 6 C1)  (* 5 C2)  (* 4 C3)  (* 4 C4)  (* 3 C5)  (* 3 C6)  (* 2 C7)  (* 1 C8)  (* 1 C9)  (* 0 C10) ))  (>= 3972 (+  (* 6 C1)  (* 6 C2)  (* 4 C3)  (* 4 C4)  (* 3 C5)  (* 3 C6)  (* 2 C7)  (* 1 C8)  (* 1 C9)  (* 0 C10) ))  (>= 4081 (+  (* 6 C1)  (* 6 C2)  (* 4 C3)  (* 4 C4)  (* 4 C5)  (* 3 C6)  (* 2 C7)  (* 1 C8)  (* 1 C9)  (* 0 C10) ))  (>= 4212 (+  (* 6 C1)  (* 6 C2)  (* 4 C3)  (* 4 C4)  (* 4 C5)  (* 3 C6)  (* 2 C7)  (* 2 C8)  (* 1 C9)  (* 0 C10) )) ) ( or  (>= 736 (+  (* 1 C1)  (* 1 C2)  (* 1 C3)  (* 1 C4)  (* 1 C5)  (* 1 C6)  (* 1 C7)  (* 1 C8)  (* 1 C9)  (* 1 C10) ))  (>= 789 (+  (* 2 C1)  (* 1 C2)  (* 1 C3)  (* 1 C4)  (* 1 C5)  (* 1 C6)  (* 1 C7)  (* 1 C8)  (* 1 C9)  (* 1 C10) ))  (>= 1255 (+  (* 2 C1)  (* 2 C2)  (* 1 C3)  (* 1 C4)  (* 1 C5)  (* 1 C6)  (* 1 C7)  (* 1 C8)  (* 1 C9)  (* 1 C10) ))  (>= 1308 (+  (* 2 C1)  (* 2 C2)  (* 2 C3)  (* 1 C4)  (* 1 C5)  (* 1 C6)  (* 1 C7)  (* 1 C8)  (* 1 C9)  (* 1 C10) ))  (>= 1324 (+  (* 2 C1)  (* 2 C2)  (* 2 C3)  (* 2 C4)  (* 1 C5)  (* 1 C6)  (* 1 C7)  (* 1 C8)  (* 1 C9)  (* 1 C10) ))  (>= 1472 (+  (* 2 C1)  (* 2 C2)  (* 2 C3)  (* 2 C4)  (* 2 C5)  (* 1 C6)  (* 1 C7)  (* 1 C8)  (* 1 C9)  (* 1 C10) ))  (>= 1578 (+  (* 3 C1)  (* 2 C2)  (* 2 C3)  (* 2 C4)  (* 2 C5)  (* 1 C6)  (* 1 C7)  (* 1 C8)  (* 1 C9)  (* 1 C10) ))  (>= 1782 (+  (* 3 C1)  (* 3 C2)  (* 2 C3)  (* 2 C4)  (* 2 C5)  (* 1 C6)  (* 1 C7)  (* 1 C8)  (* 1 C9)  (* 1 C10) ))  (>= 2208 (+  (* 3 C1)  (* 3 C2)  (* 2 C3)  (* 2 C4)  (* 2 C5)  (* 2 C6)  (* 1 C7)  (* 1 C8)  (* 1 C9)  (* 1 C10) ))  (>= 2367 (+  (* 4 C1)  (* 3 C2)  (* 2 C3)  (* 2 C4)  (* 2 C5)  (* 2 C6)  (* 1 C7)  (* 1 C8)  (* 1 C9)  (* 1 C10) ))  (>= 2510 (+  (* 4 C1)  (* 4 C2)  (* 2 C3)  (* 2 C4)  (* 2 C5)  (* 2 C6)  (* 1 C7)  (* 1 C8)  (* 1 C9)  (* 1 C10) ))  (>= 2616 (+  (* 4 C1)  (* 4 C2)  (* 3 C3)  (* 2 C4)  (* 2 C5)  (* 2 C6)  (* 1 C7)  (* 1 C8)  (* 1 C9)  (* 1 C10) ))  (>= 2648 (+  (* 4 C1)  (* 4 C2)  (* 3 C3)  (* 3 C4)  (* 2 C5)  (* 2 C6)  (* 1 C7)  (* 1 C8)  (* 1 C9)  (* 1 C10) ))  (>= 2759 (+  (* 4 C1)  (* 4 C2)  (* 3 C3)  (* 3 C4)  (* 3 C5)  (* 2 C6)  (* 1 C7)  (* 1 C8)  (* 1 C9)  (* 1 C10) ))  (>= 2944 (+  (* 4 C1)  (* 4 C2)  (* 3 C3)  (* 3 C4)  (* 3 C5)  (* 2 C6)  (* 2 C7)  (* 1 C8)  (* 1 C9)  (* 1 C10) ))  (>= 3156 (+  (* 5 C1)  (* 4 C2)  (* 3 C3)  (* 3 C4)  (* 3 C5)  (* 2 C6)  (* 2 C7)  (* 1 C8)  (* 1 C9)  (* 1 C10) ))  (>= 3564 (+  (* 5 C1)  (* 5 C2)  (* 3 C3)  (* 3 C4)  (* 3 C5)  (* 2 C6)  (* 2 C7)  (* 1 C8)  (* 1 C9)  (* 1 C10) ))  (>= 3680 (+  (* 5 C1)  (* 5 C2)  (* 3 C3)  (* 3 C4)  (* 3 C5)  (* 3 C6)  (* 2 C7)  (* 1 C8)  (* 1 C9)  (* 1 C10) ))  (>= 3765 (+  (* 6 C1)  (* 5 C2)  (* 3 C3)  (* 3 C4)  (* 3 C5)  (* 3 C6)  (* 2 C7)  (* 1 C8)  (* 1 C9)  (* 1 C10) ))  (>= 3924 (+  (* 6 C1)  (* 5 C2)  (* 4 C3)  (* 3 C4)  (* 3 C5)  (* 3 C6)  (* 2 C7)  (* 1 C8)  (* 1 C9)  (* 1 C10) ))  (>= 3945 (+  (* 6 C1)  (* 5 C2)  (* 4 C3)  (* 4 C4)  (* 3 C5)  (* 3 C6)  (* 2 C7)  (* 1 C8)  (* 1 C9)  (* 1 C10) ))  (>= 3972 (+  (* 6 C1)  (* 6 C2)  (* 4 C3)  (* 4 C4)  (* 3 C5)  (* 3 C6)  (* 2 C7)  (* 1 C8)  (* 1 C9)  (* 1 C10) ))  (>= 4081 (+  (* 6 C1)  (* 6 C2)  (* 4 C3)  (* 4 C4)  (* 4 C5)  (* 3 C6)  (* 2 C7)  (* 1 C8)  (* 1 C9)  (* 1 C10) ))  (>= 4212 (+  (* 6 C1)  (* 6 C2)  (* 4 C3)  (* 4 C4)  (* 4 C5)  (* 3 C6)  (* 2 C7)  (* 2 C8)  (* 1 C9)  (* 1 C10) ))  (>= 4416 (+  (* 6 C1)  (* 6 C2)  (* 4 C3)  (* 4 C4)  (* 4 C5)  (* 3 C6)  (* 2 C7)  (* 2 C8)  (* 2 C9)  (* 1 C10) ))  (>= 4650 (+  (* 7 C1)  (* 6 C2)  (* 4 C3)  (* 4 C4)  (* 4 C5)  (* 3 C6)  (* 2 C7)  (* 2 C8)  (* 2 C9)  (* 1 C10) )) )  (and (>= C1 7) (>= C2 7) (>= C3 12) (>= C4 13) (>= C5 13) (>= C6 17) (>= C7 27) (>= C8 40) (>= C9 42) (>= C10 46) )  (and (<= C1 323) (<= C2 346) (<= C3 551) (<= C4 574) (<= C5 581) (<= C6 782) (<= C7 1212) (<= C8 1792) (<= C9 1850) (<= C10 2042) ) )))
(=> $phi $goal))))